案例练习/Chisel/buffer_bmc/buffer/model/design_smt2.smt2
; SMT-LIBv2 description generated by Yosys 0.35+24 (git sha1 7eea04779, aarch64-apple-darwin20.2-clang 10.0.0-4ubuntu1 -fPIC -Os)
; yosys-smt2-module $paramod/AnyConst/WIDTH=s32'00000000000000000000000000000001
(declare-sort |$paramod/AnyConst/WIDTH=s32'00000000000000000000000000000001_s| 0)
(declare-fun |$paramod/AnyConst/WIDTH=s32'00000000000000000000000000000001_is| (|$paramod/AnyConst/WIDTH=s32'00000000000000000000000000000001_s|) Bool)
; yosys-smt2-anyconst $paramod/AnyConst/WIDTH=s32'00000000000000000000000000000001#0 1 AnyConst.sv:0.0-0.0 cst
; yosys-smt2-witness {"offset": 0, "path": ["\\out"], "smtname": 0, "smtoffset": 0, "type": "init", "width": 1}
(declare-fun |$paramod/AnyConst/WIDTH=s32'00000000000000000000000000000001#0| (|$paramod/AnyConst/WIDTH=s32'00000000000000000000000000000001_s|) (_ BitVec 1)) ; \out
; yosys-smt2-output out 1
; yosys-smt2-wire out 1
(define-fun |$paramod/AnyConst/WIDTH=s32'00000000000000000000000000000001_n out| ((state |$paramod/AnyConst/WIDTH=s32'00000000000000000000000000000001_s|)) Bool (= ((_ extract 0 0) (|$paramod/AnyConst/WIDTH=s32'00000000000000000000000000000001#0| state)) #b1))
; yosys-smt2-wire cst 1
(define-fun |$paramod/AnyConst/WIDTH=s32'00000000000000000000000000000001_n cst| ((state |$paramod/AnyConst/WIDTH=s32'00000000000000000000000000000001_s|)) Bool (= ((_ extract 0 0) (|$paramod/AnyConst/WIDTH=s32'00000000000000000000000000000001#0| state)) #b1))
(define-fun |$paramod/AnyConst/WIDTH=s32'00000000000000000000000000000001_a| ((state |$paramod/AnyConst/WIDTH=s32'00000000000000000000000000000001_s|)) Bool true)
(define-fun |$paramod/AnyConst/WIDTH=s32'00000000000000000000000000000001_u| ((state |$paramod/AnyConst/WIDTH=s32'00000000000000000000000000000001_s|)) Bool true)
(define-fun |$paramod/AnyConst/WIDTH=s32'00000000000000000000000000000001_i| ((state |$paramod/AnyConst/WIDTH=s32'00000000000000000000000000000001_s|)) Bool true)
(define-fun |$paramod/AnyConst/WIDTH=s32'00000000000000000000000000000001_h| ((state |$paramod/AnyConst/WIDTH=s32'00000000000000000000000000000001_s|)) Bool true)
(define-fun |$paramod/AnyConst/WIDTH=s32'00000000000000000000000000000001_t| ((state |$paramod/AnyConst/WIDTH=s32'00000000000000000000000000000001_s|) (next_state |$paramod/AnyConst/WIDTH=s32'00000000000000000000000000000001_s|)) Bool 
  (= (|$paramod/AnyConst/WIDTH=s32'00000000000000000000000000000001#0| state) (|$paramod/AnyConst/WIDTH=s32'00000000000000000000000000000001#0| next_state)) ; $anyconst$82 \out
) ; end of module $paramod/AnyConst/WIDTH=s32'00000000000000000000000000000001
; yosys-smt2-module ResetCounter
(declare-sort |ResetCounter_s| 0)
(declare-fun |ResetCounter_is| (|ResetCounter_s|) Bool)
; yosys-smt2-witness {"offset": 0, "path": ["\\count"], "smtname": 0, "smtoffset": 0, "type": "reg", "width": 32}
(declare-fun |ResetCounter#0| (|ResetCounter_s|) (_ BitVec 32)) ; \count
; yosys-smt2-output timeSinceReset 32
; yosys-smt2-wire timeSinceReset 32
(define-fun |ResetCounter_n timeSinceReset| ((state |ResetCounter_s|)) (_ BitVec 32) (|ResetCounter#0| state))
(declare-fun |ResetCounter#1| (|ResetCounter_s|) Bool) ; \reset
; yosys-smt2-input reset 1
; yosys-smt2-wire reset 1
; yosys-smt2-witness {"offset": 0, "path": ["\\reset"], "smtname": "reset", "smtoffset": 0, "type": "input", "width": 1}
(define-fun |ResetCounter_n reset| ((state |ResetCounter_s|)) Bool (|ResetCounter#1| state))
; yosys-smt2-witness {"offset": 0, "path": ["\\flag"], "smtname": 2, "smtoffset": 0, "type": "reg", "width": 1}
(declare-fun |ResetCounter#2| (|ResetCounter_s|) (_ BitVec 1)) ; \flag
; yosys-smt2-output notChaos 1
; yosys-smt2-wire notChaos 1
(define-fun |ResetCounter_n notChaos| ((state |ResetCounter_s|)) Bool (= ((_ extract 0 0) (|ResetCounter#2| state)) #b1))
; yosys-smt2-register flag 1
; yosys-smt2-wire flag 1
(define-fun |ResetCounter_n flag| ((state |ResetCounter_s|)) Bool (= ((_ extract 0 0) (|ResetCounter#2| state)) #b1))
; yosys-smt2-register count 32
; yosys-smt2-wire count 32
(define-fun |ResetCounter_n count| ((state |ResetCounter_s|)) (_ BitVec 32) (|ResetCounter#0| state))
(declare-fun |ResetCounter#3| (|ResetCounter_s|) Bool) ; \clk
; yosys-smt2-input clk 1
; yosys-smt2-wire clk 1
; yosys-smt2-clock clk posedge
; yosys-smt2-witness {"offset": 0, "path": ["\\clk"], "smtname": "clk", "smtoffset": 0, "type": "posedge", "width": 1}
; yosys-smt2-witness {"offset": 0, "path": ["\\clk"], "smtname": "clk", "smtoffset": 0, "type": "input", "width": 1}
(define-fun |ResetCounter_n clk| ((state |ResetCounter_s|)) Bool (|ResetCounter#3| state))
(define-fun |ResetCounter#4| ((state |ResetCounter_s|)) (_ BitVec 1) (bvnot (ite (|ResetCounter#3| state) #b1 #b0))) ; $auto$rtlil.cc:2461:Not$229
; yosys-smt2-assume 0 $auto$formalff.cc:758:execute$230
(define-fun |ResetCounter_u 0| ((state |ResetCounter_s|)) Bool (or (= ((_ extract 0 0) (|ResetCounter#4| state)) #b1) (not true))) ; $auto$formalff.cc:758:execute$230
(define-fun |ResetCounter#5| ((state |ResetCounter_s|)) (_ BitVec 1) (ite (|ResetCounter#1| state) #b1 (|ResetCounter#2| state))) ; $0\flag[0:0]
(define-fun |ResetCounter#6| ((state |ResetCounter_s|)) (_ BitVec 32) (bvadd (|ResetCounter#0| state) #b00000000000000000000000000000001)) ; $add$ResetCounter.sv:24$84_Y
(define-fun |ResetCounter#7| ((state |ResetCounter_s|)) (_ BitVec 32) (ite (= ((_ extract 0 0) (|ResetCounter#2| state)) #b1) (|ResetCounter#6| state) (|ResetCounter#0| state))) ; $procmux$86_Y
(define-fun |ResetCounter#8| ((state |ResetCounter_s|)) (_ BitVec 32) (ite (|ResetCounter#1| state) #b00000000000000000000000000000000 (|ResetCounter#7| state))) ; $0\count[31:0]
(define-fun |ResetCounter_a| ((state |ResetCounter_s|)) Bool true)
(define-fun |ResetCounter_u| ((state |ResetCounter_s|)) Bool 
  (|ResetCounter_u 0| state)
)
(define-fun |ResetCounter_i| ((state |ResetCounter_s|)) Bool (and
  (= (= ((_ extract 0 0) (|ResetCounter#2| state)) #b1) false) ; flag
  (= (|ResetCounter#0| state) #b00000000000000000000000000000000) ; count
))
(define-fun |ResetCounter_h| ((state |ResetCounter_s|)) Bool true)
(define-fun |ResetCounter_t| ((state |ResetCounter_s|) (next_state |ResetCounter_s|)) Bool (and
  (= (|ResetCounter#5| state) (|ResetCounter#2| next_state)) ; $procdff$185 \flag
  (= (|ResetCounter#8| state) (|ResetCounter#0| next_state)) ; $procdff$186 \count
)) ; end of module ResetCounter
; yosys-smt2-module buffer
(declare-sort |buffer_s| 0)
(declare-fun |buffer_is| (|buffer_s|) Bool)
; yosys-smt2-anyinit buffer#0 2 buffer.sv:66.3-207.6
; yosys-smt2-witness {"offset": 0, "path": ["\\wrptr"], "smtname": 0, "smtoffset": 0, "type": "init", "width": 2}
(declare-fun |buffer#0| (|buffer_s|) (_ BitVec 2)) ; \wrptr
; yosys-smt2-register wrptr 2
; yosys-smt2-wire wrptr 2
(define-fun |buffer_n wrptr| ((state |buffer_s|)) (_ BitVec 2) (|buffer#0| state))
; yosys-smt2-cell $paramod/AnyConst/WIDTH=s32'00000000000000000000000000000001 rnd_mark_cst
; yosys-smt2-witness {"path": ["\\rnd_mark_cst"], "smtname": "rnd_mark_cst", "type": "cell"}
(declare-fun |buffer#1| (|buffer_s|) Bool) ; \rnd_mark_cst_out
(declare-fun |buffer_h rnd_mark_cst| (|buffer_s|) |$paramod/AnyConst/WIDTH=s32'00000000000000000000000000000001_s|)
; yosys-smt2-wire rnd_mark_cst_out 1
(define-fun |buffer_n rnd_mark_cst_out| ((state |buffer_s|)) Bool (|buffer#1| state))
; yosys-smt2-cell ResetCounter resetCounter
; yosys-smt2-witness {"path": ["\\resetCounter"], "smtname": "resetCounter", "type": "cell"}
(declare-fun |buffer#2| (|buffer_s|) (_ BitVec 32)) ; \resetCounter_timeSinceReset
(declare-fun |buffer#3| (|buffer_s|) Bool) ; \resetCounter_notChaos
(declare-fun |buffer_h resetCounter| (|buffer_s|) |ResetCounter_s|)
; yosys-smt2-wire resetCounter_timeSinceReset 32
(define-fun |buffer_n resetCounter_timeSinceReset| ((state |buffer_s|)) (_ BitVec 32) (|buffer#2| state))
(declare-fun |buffer#4| (|buffer_s|) Bool) ; \reset
; yosys-smt2-wire resetCounter_reset 1
(define-fun |buffer_n resetCounter_reset| ((state |buffer_s|)) Bool (|buffer#4| state))
; yosys-smt2-wire resetCounter_notChaos 1
(define-fun |buffer_n resetCounter_notChaos| ((state |buffer_s|)) Bool (|buffer#3| state))
(declare-fun |buffer#5| (|buffer_s|) Bool) ; \clock
; yosys-smt2-wire resetCounter_clk 1
; yosys-smt2-clock resetCounter_clk posedge
(define-fun |buffer_n resetCounter_clk| ((state |buffer_s|)) Bool (|buffer#5| state))
; yosys-smt2-input reset 1
; yosys-smt2-wire reset 1
; yosys-smt2-witness {"offset": 0, "path": ["\\reset"], "smtname": "reset", "smtoffset": 0, "type": "input", "width": 1}
(define-fun |buffer_n reset| ((state |buffer_s|)) Bool (|buffer#4| state))
; yosys-smt2-anyinit buffer#6 2 buffer.sv:66.3-207.6
; yosys-smt2-witness {"offset": 0, "path": ["\\rdptr"], "smtname": 6, "smtoffset": 0, "type": "init", "width": 2}
(declare-fun |buffer#6| (|buffer_s|) (_ BitVec 2)) ; \rdptr
; yosys-smt2-register rdptr 2
; yosys-smt2-wire rdptr 2
(define-fun |buffer_n rdptr| ((state |buffer_s|)) (_ BitVec 2) (|buffer#6| state))
(define-fun |buffer#7| ((state |buffer_s|)) (_ BitVec 2) (bvadd (|buffer#0| state) #b01)) ; \_pdiff_T_1
(define-fun |buffer#8| ((state |buffer_s|)) Bool (= (|buffer#6| state) (|buffer#7| state))) ; \pdiff
; yosys-smt2-wire pdiff 1
(define-fun |buffer_n pdiff| ((state |buffer_s|)) Bool (|buffer#8| state))
; yosys-smt2-anyinit buffer#9 1 buffer.sv:66.3-207.6
; yosys-smt2-witness {"offset": 0, "path": ["\\out_full"], "smtname": 9, "smtoffset": 0, "type": "init", "width": 1}
(declare-fun |buffer#9| (|buffer_s|) (_ BitVec 1)) ; \out_full
; yosys-smt2-register out_full 1
; yosys-smt2-wire out_full 1
(define-fun |buffer_n out_full| ((state |buffer_s|)) Bool (= ((_ extract 0 0) (|buffer#9| state)) #b1))
; yosys-smt2-anyinit buffer#10 1 buffer.sv:66.3-207.6
; yosys-smt2-witness {"offset": 0, "path": ["\\out_empty"], "smtname": 10, "smtoffset": 0, "type": "init", "width": 1}
(declare-fun |buffer#10| (|buffer_s|) (_ BitVec 1)) ; \out_empty
; yosys-smt2-register out_empty 1
; yosys-smt2-wire out_empty 1
(define-fun |buffer_n out_empty| ((state |buffer_s|)) Bool (= ((_ extract 0 0) (|buffer#10| state)) #b1))
; yosys-smt2-anyinit buffer#11 8 buffer.sv:66.3-207.6
; yosys-smt2-witness {"offset": 0, "path": ["\\out_data"], "smtname": 11, "smtoffset": 0, "type": "init", "width": 8}
(declare-fun |buffer#11| (|buffer_s|) (_ BitVec 8)) ; \out_data
; yosys-smt2-register out_data 8
; yosys-smt2-wire out_data 8
(define-fun |buffer_n out_data| ((state |buffer_s|)) (_ BitVec 8) (|buffer#11| state))
(declare-fun |buffer#12| (|buffer_s|) (_ BitVec 1)) ; \io_in_wr
(define-fun |buffer#13| ((state |buffer_s|)) (_ BitVec 1) (bvand (|buffer#12| state) (ite (|buffer#1| state) #b1 #b0))) ; \mark_vld
; yosys-smt2-wire mark_vld 1
(define-fun |buffer_n mark_vld| ((state |buffer_s|)) Bool (= ((_ extract 0 0) (|buffer#13| state)) #b1))
(declare-fun |buffer#14| (|buffer_s|) Bool) ; \io_rst_n
; yosys-smt2-input io_rst_n 1
; yosys-smt2-wire io_rst_n 1
; yosys-smt2-witness {"offset": 0, "path": ["\\io_rst_n"], "smtname": "io_rst_n", "smtoffset": 0, "type": "input", "width": 1}
(define-fun |buffer_n io_rst_n| ((state |buffer_s|)) Bool (|buffer#14| state))
; yosys-smt2-output io_out_full 1
; yosys-smt2-wire io_out_full 1
(define-fun |buffer_n io_out_full| ((state |buffer_s|)) Bool (= ((_ extract 0 0) (|buffer#9| state)) #b1))
; yosys-smt2-output io_out_empty 1
; yosys-smt2-wire io_out_empty 1
(define-fun |buffer_n io_out_empty| ((state |buffer_s|)) Bool (= ((_ extract 0 0) (|buffer#10| state)) #b1))
; yosys-smt2-output io_out_data 8
; yosys-smt2-wire io_out_data 8
(define-fun |buffer_n io_out_data| ((state |buffer_s|)) (_ BitVec 8) (|buffer#11| state))
; yosys-smt2-input io_in_wr 1
; yosys-smt2-wire io_in_wr 1
; yosys-smt2-witness {"offset": 0, "path": ["\\io_in_wr"], "smtname": "io_in_wr", "smtoffset": 0, "type": "input", "width": 1}
(define-fun |buffer_n io_in_wr| ((state |buffer_s|)) Bool (= ((_ extract 0 0) (|buffer#12| state)) #b1))
(declare-fun |buffer#15| (|buffer_s|) (_ BitVec 8)) ; \io_in_wdata
; yosys-smt2-input io_in_wdata 8
; yosys-smt2-wire io_in_wdata 8
; yosys-smt2-witness {"offset": 0, "path": ["\\io_in_wdata"], "smtname": "io_in_wdata", "smtoffset": 0, "type": "input", "width": 8}
(define-fun |buffer_n io_in_wdata| ((state |buffer_s|)) (_ BitVec 8) (|buffer#15| state))
(declare-fun |buffer#16| (|buffer_s|) Bool) ; \io_in_rd
; yosys-smt2-input io_in_rd 1
; yosys-smt2-wire io_in_rd 1
; yosys-smt2-witness {"offset": 0, "path": ["\\io_in_rd"], "smtname": "io_in_rd", "smtoffset": 0, "type": "input", "width": 1}
(define-fun |buffer_n io_in_rd| ((state |buffer_s|)) Bool (|buffer#16| state))
; yosys-smt2-anyinit buffer#17 1 buffer.sv:66.3-207.6
; yosys-smt2-witness {"offset": 0, "path": ["\\flag"], "smtname": 17, "smtoffset": 0, "type": "init", "width": 1}
(declare-fun |buffer#17| (|buffer_s|) (_ BitVec 1)) ; \flag
; yosys-smt2-register flag 1
; yosys-smt2-wire flag 1
(define-fun |buffer_n flag| ((state |buffer_s|)) Bool (= ((_ extract 0 0) (|buffer#17| state)) #b1))
; yosys-smt2-input clock 1
; yosys-smt2-wire clock 1
; yosys-smt2-clock clock posedge
; yosys-smt2-witness {"offset": 0, "path": ["\\clock"], "smtname": "clock", "smtoffset": 0, "type": "posedge", "width": 1}
; yosys-smt2-witness {"offset": 0, "path": ["\\clock"], "smtname": "clock", "smtoffset": 0, "type": "input", "width": 1}
(define-fun |buffer_n clock| ((state |buffer_s|)) Bool (|buffer#5| state))
(define-fun |buffer#18| ((state |buffer_s|)) Bool (not (or  (= ((_ extract 0 0) (|buffer#11| state)) #b1) (= ((_ extract 1 1) (|buffer#11| state)) #b1) (= ((_ extract 2 2) (|buffer#11| state)) #b1) (= ((_ extract 3 3) (|buffer#11| state)) #b1) (= ((_ extract 4 4) (|buffer#11| state)) #b1) (= ((_ extract 5 5) (|buffer#11| state)) #b1) (= ((_ extract 6 6) (|buffer#11| state)) #b1) (= ((_ extract 7 7) (|buffer#11| state)) #b1)))) ; $eq$buffer.sv:49$23_Y
(define-fun |buffer#19| ((state |buffer_s|)) (_ BitVec 1) (bvand (ite (|buffer#16| state) #b1 #b0) (ite (|buffer#18| state) #b1 #b0))) ; \check_vld
; yosys-smt2-wire check_vld 1
(define-fun |buffer_n check_vld| ((state |buffer_s|)) Bool (= ((_ extract 0 0) (|buffer#19| state)) #b1))
; yosys-smt2-anyinit buffer#20 8 buffer.sv:66.3-207.6
; yosys-smt2-witness {"offset": 0, "path": ["\\buffer_3"], "smtname": 20, "smtoffset": 0, "type": "init", "width": 8}
(declare-fun |buffer#20| (|buffer_s|) (_ BitVec 8)) ; \buffer_3
; yosys-smt2-register buffer_3 8
; yosys-smt2-wire buffer_3 8
(define-fun |buffer_n buffer_3| ((state |buffer_s|)) (_ BitVec 8) (|buffer#20| state))
; yosys-smt2-anyinit buffer#21 8 buffer.sv:66.3-207.6
; yosys-smt2-witness {"offset": 0, "path": ["\\buffer_2"], "smtname": 21, "smtoffset": 0, "type": "init", "width": 8}
(declare-fun |buffer#21| (|buffer_s|) (_ BitVec 8)) ; \buffer_2
; yosys-smt2-register buffer_2 8
; yosys-smt2-wire buffer_2 8
(define-fun |buffer_n buffer_2| ((state |buffer_s|)) (_ BitVec 8) (|buffer#21| state))
; yosys-smt2-anyinit buffer#22 8 buffer.sv:66.3-207.6
; yosys-smt2-witness {"offset": 0, "path": ["\\buffer_1"], "smtname": 22, "smtoffset": 0, "type": "init", "width": 8}
(declare-fun |buffer#22| (|buffer_s|) (_ BitVec 8)) ; \buffer_1
; yosys-smt2-register buffer_1 8
; yosys-smt2-wire buffer_1 8
(define-fun |buffer_n buffer_1| ((state |buffer_s|)) (_ BitVec 8) (|buffer#22| state))
; yosys-smt2-anyinit buffer#23 8 buffer.sv:66.3-207.6
; yosys-smt2-witness {"offset": 0, "path": ["\\buffer_0"], "smtname": 23, "smtoffset": 0, "type": "init", "width": 8}
(declare-fun |buffer#23| (|buffer_s|) (_ BitVec 8)) ; \buffer_0
; yosys-smt2-register buffer_0 8
; yosys-smt2-wire buffer_0 8
(define-fun |buffer_n buffer_0| ((state |buffer_s|)) (_ BitVec 8) (|buffer#23| state))
; yosys-smt2-anyseq buffer#24 1 $auto$setundef.cc:533:execute$223
; yosys-smt2-witness {"offset": 0, "path": ["\\_witness_", "\\anyseq_auto_setundef_cc_533_execute_223"], "smtname": 24, "smtoffset": 0, "type": "seq", "width": 1}
(declare-fun |buffer#24| (|buffer_s|) (_ BitVec 1)) ; \_witness_.anyseq_auto_setundef_cc_533_execute_223
; yosys-smt2-wire _witness_.anyseq_auto_setundef_cc_533_execute_223 1
(define-fun |buffer_n _witness_.anyseq_auto_setundef_cc_533_execute_223| ((state |buffer_s|)) Bool (= ((_ extract 0 0) (|buffer#24| state)) #b1))
; yosys-smt2-anyseq buffer#25 1 $auto$setundef.cc:533:execute$221
; yosys-smt2-witness {"offset": 0, "path": ["\\_witness_", "\\anyseq_auto_setundef_cc_533_execute_221"], "smtname": 25, "smtoffset": 0, "type": "seq", "width": 1}
(declare-fun |buffer#25| (|buffer_s|) (_ BitVec 1)) ; \_witness_.anyseq_auto_setundef_cc_533_execute_221
; yosys-smt2-wire _witness_.anyseq_auto_setundef_cc_533_execute_221 1
(define-fun |buffer_n _witness_.anyseq_auto_setundef_cc_533_execute_221| ((state |buffer_s|)) Bool (= ((_ extract 0 0) (|buffer#25| state)) #b1))
; yosys-smt2-anyseq buffer#26 1 $auto$setundef.cc:533:execute$219
; yosys-smt2-witness {"offset": 0, "path": ["\\_witness_", "\\anyseq_auto_setundef_cc_533_execute_219"], "smtname": 26, "smtoffset": 0, "type": "seq", "width": 1}
(declare-fun |buffer#26| (|buffer_s|) (_ BitVec 1)) ; \_witness_.anyseq_auto_setundef_cc_533_execute_219
; yosys-smt2-wire _witness_.anyseq_auto_setundef_cc_533_execute_219 1
(define-fun |buffer_n _witness_.anyseq_auto_setundef_cc_533_execute_219| ((state |buffer_s|)) Bool (= ((_ extract 0 0) (|buffer#26| state)) #b1))
; yosys-smt2-anyseq buffer#27 1 $auto$setundef.cc:533:execute$217
; yosys-smt2-witness {"offset": 0, "path": ["\\_witness_", "\\anyseq_auto_setundef_cc_533_execute_217"], "smtname": 27, "smtoffset": 0, "type": "seq", "width": 1}
(declare-fun |buffer#27| (|buffer_s|) (_ BitVec 1)) ; \_witness_.anyseq_auto_setundef_cc_533_execute_217
; yosys-smt2-wire _witness_.anyseq_auto_setundef_cc_533_execute_217 1
(define-fun |buffer_n _witness_.anyseq_auto_setundef_cc_533_execute_217| ((state |buffer_s|)) Bool (= ((_ extract 0 0) (|buffer#27| state)) #b1))
; yosys-smt2-anyseq buffer#28 1 $auto$setundef.cc:533:execute$215
; yosys-smt2-witness {"offset": 0, "path": ["\\_witness_", "\\anyseq_auto_setundef_cc_533_execute_215"], "smtname": 28, "smtoffset": 0, "type": "seq", "width": 1}
(declare-fun |buffer#28| (|buffer_s|) (_ BitVec 1)) ; \_witness_.anyseq_auto_setundef_cc_533_execute_215
; yosys-smt2-wire _witness_.anyseq_auto_setundef_cc_533_execute_215 1
(define-fun |buffer_n _witness_.anyseq_auto_setundef_cc_533_execute_215| ((state |buffer_s|)) Bool (= ((_ extract 0 0) (|buffer#28| state)) #b1))
; yosys-smt2-anyseq buffer#29 1 $auto$setundef.cc:533:execute$213
; yosys-smt2-witness {"offset": 0, "path": ["\\_witness_", "\\anyseq_auto_setundef_cc_533_execute_213"], "smtname": 29, "smtoffset": 0, "type": "seq", "width": 1}
(declare-fun |buffer#29| (|buffer_s|) (_ BitVec 1)) ; \_witness_.anyseq_auto_setundef_cc_533_execute_213
; yosys-smt2-wire _witness_.anyseq_auto_setundef_cc_533_execute_213 1
(define-fun |buffer_n _witness_.anyseq_auto_setundef_cc_533_execute_213| ((state |buffer_s|)) Bool (= ((_ extract 0 0) (|buffer#29| state)) #b1))
; yosys-smt2-anyinit buffer#30 1 buffer.sv:271.3-296.6
; yosys-smt2-witness {"offset": 0, "path": ["\\_witness_", "\\anyinit_procdff_197"], "smtname": 30, "smtoffset": 0, "type": "init", "width": 1}
(declare-fun |buffer#30| (|buffer_s|) (_ BitVec 1)) ; \_witness_.anyinit_procdff_197
; yosys-smt2-register _witness_.anyinit_procdff_197 1
; yosys-smt2-wire _witness_.anyinit_procdff_197 1
(define-fun |buffer_n _witness_.anyinit_procdff_197| ((state |buffer_s|)) Bool (= ((_ extract 0 0) (|buffer#30| state)) #b1))
(define-fun |buffer#31| ((state |buffer_s|)) (_ BitVec 2) (bvadd (|buffer#6| state) #b01)) ; \_rdptr_T_2
; yosys-smt2-wire _rdptr_T_2 2
(define-fun |buffer_n _rdptr_T_2| ((state |buffer_s|)) (_ BitVec 2) (|buffer#31| state))
; yosys-smt2-wire _pdiff_T_1 2
(define-fun |buffer_n _pdiff_T_1| ((state |buffer_s|)) (_ BitVec 2) (|buffer#7| state))
(define-fun |buffer#32| ((state |buffer_s|)) (_ BitVec 1) (bvnot (ite (|buffer#4| state) #b1 #b0))) ; \_T_8
; yosys-smt2-wire _T_8 1
(define-fun |buffer_n _T_8| ((state |buffer_s|)) Bool (= ((_ extract 0 0) (|buffer#32| state)) #b1))
(define-fun |buffer#33| ((state |buffer_s|)) (_ BitVec 1) (bvnot (|buffer#12| state))) ; \_T_3
; yosys-smt2-wire _T_3 1
(define-fun |buffer_n _T_3| ((state |buffer_s|)) Bool (= ((_ extract 0 0) (|buffer#33| state)) #b1))
(define-fun |buffer#34| ((state |buffer_s|)) (_ BitVec 1) (bvnot (|buffer#13| state))) ; \_T_23
; yosys-smt2-wire _T_23 1
(define-fun |buffer_n _T_23| ((state |buffer_s|)) Bool (= ((_ extract 0 0) (|buffer#34| state)) #b1))
(define-fun |buffer#35| ((state |buffer_s|)) (_ BitVec 1) (bvnot (ite (|buffer#16| state) #b1 #b0))) ; \_T_1
; yosys-smt2-wire _T_1 1
(define-fun |buffer_n _T_1| ((state |buffer_s|)) Bool (= ((_ extract 0 0) (|buffer#35| state)) #b1))
(define-fun |buffer#36| ((state |buffer_s|)) (_ BitVec 1) (bvor (|buffer#13| state) (|buffer#17| state))) ; \_GEN_17
; yosys-smt2-wire _GEN_17 1
(define-fun |buffer_n _GEN_17| ((state |buffer_s|)) Bool (= ((_ extract 0 0) (|buffer#36| state)) #b1))
(define-fun |buffer#37| ((state |buffer_s|)) Bool (= #b01 (|buffer#6| state))) ; $eq$buffer.sv:45$19_Y
(define-fun |buffer#38| ((state |buffer_s|)) (_ BitVec 8) (ite (|buffer#37| state) (|buffer#22| state) (|buffer#23| state))) ; \_GEN_13
; yosys-smt2-wire _GEN_13 8
(define-fun |buffer_n _GEN_13| ((state |buffer_s|)) (_ BitVec 8) (|buffer#38| state))
(define-fun |buffer#39| ((state |buffer_s|)) (_ BitVec 1) (bvand (ite (|buffer#8| state) #b1 #b0) (|buffer#12| state))) ; $and$buffer.sv:43$14_Y
(define-fun |buffer#40| ((state |buffer_s|)) (_ BitVec 1) (bvand (|buffer#39| state) (|buffer#35| state))) ; $and$buffer.sv:43$16_Y
(define-fun |buffer#41| ((state |buffer_s|)) (_ BitVec 1) (bvand (|buffer#33| state) (ite (|buffer#16| state) #b1 #b0))) ; $and$buffer.sv:42$12_Y
(define-fun |buffer#42| ((state |buffer_s|)) (_ BitVec 1) (ite (= ((_ extract 0 0) (|buffer#41| state)) #b1) #b0 (|buffer#9| state))) ; \_GEN_0
(define-fun |buffer#43| ((state |buffer_s|)) (_ BitVec 1) (bvor (|buffer#40| state) (|buffer#42| state))) ; \_GEN_1
; yosys-smt2-wire _GEN_1 1
(define-fun |buffer_n _GEN_1| ((state |buffer_s|)) Bool (= ((_ extract 0 0) (|buffer#43| state)) #b1))
; yosys-smt2-wire _GEN_0 1
(define-fun |buffer_n _GEN_0| ((state |buffer_s|)) Bool (= ((_ extract 0 0) (|buffer#42| state)) #b1))
; yosys-smt2-witness {"offset": 0, "path": ["$formal$buffer.sv:293$6_EN"], "smtname": 44, "smtoffset": 0, "type": "reg", "width": 1}
(declare-fun |buffer#44| (|buffer_s|) (_ BitVec 1)) ; $formal$buffer.sv:293$6_EN
; yosys-smt2-register $formal$buffer.sv:293$6_EN 1
(define-fun |buffer_n $formal$buffer.sv:293$6_EN| ((state |buffer_s|)) Bool (= ((_ extract 0 0) (|buffer#44| state)) #b1))
(define-fun |buffer#45| ((state |buffer_s|)) (_ BitVec 1) (bvnot (ite (|buffer#5| state) #b1 #b0))) ; $auto$rtlil.cc:2461:Not$226
; yosys-smt2-assume 0 $auto$formalff.cc:758:execute$227
(define-fun |buffer_u 0| ((state |buffer_s|)) Bool (or (= ((_ extract 0 0) (|buffer#45| state)) #b1) (not true))) ; $auto$formalff.cc:758:execute$227
(define-fun |buffer#46| ((state |buffer_s|)) (_ BitVec 1) (bvand (|buffer#17| state) (|buffer#32| state))) ; $and$buffer.sv:289$60_Y
(define-fun |buffer#47| ((state |buffer_s|)) (_ BitVec 1) (ite (= ((_ extract 0 0) (|buffer#46| state)) #b1) (|buffer#34| state) (|buffer#26| state))) ; $0$formal$buffer.sv:289$5_CHECK[0:0]$48
(define-fun |buffer#48| ((state |buffer_s|)) (_ BitVec 1) (ite (= ((_ extract 0 0) (|buffer#46| state)) #b1) #b1 #b0)) ; $0$formal$buffer.sv:289$5_EN[0:0]$49
; yosys-smt2-assume 1 $assume$buffer.sv:289$68 buffer.sv:289.27-290.24
(define-fun |buffer_u 1| ((state |buffer_s|)) Bool (or (= ((_ extract 0 0) (|buffer#47| state)) #b1) (not (= ((_ extract 0 0) (|buffer#48| state)) #b1)))) ; $assume$buffer.sv:289$68
(define-fun |buffer#49| ((state |buffer_s|)) Bool (not (or  (= ((_ extract 0 0) (|buffer#15| state)) #b1) (= ((_ extract 1 1) (|buffer#15| state)) #b1) (= ((_ extract 2 2) (|buffer#15| state)) #b1) (= ((_ extract 3 3) (|buffer#15| state)) #b1) (= ((_ extract 4 4) (|buffer#15| state)) #b1) (= ((_ extract 5 5) (|buffer#15| state)) #b1) (= ((_ extract 6 6) (|buffer#15| state)) #b1) (= ((_ extract 7 7) (|buffer#15| state)) #b1)))) ; $eq$buffer.sv:286$59_Y
(define-fun |buffer#50| ((state |buffer_s|)) (_ BitVec 1) (bvand (|buffer#34| state) (|buffer#12| state))) ; $and$buffer.sv:285$57_Y
(define-fun |buffer#51| ((state |buffer_s|)) (_ BitVec 1) (bvand (|buffer#50| state) (|buffer#32| state))) ; $and$buffer.sv:285$58_Y
(define-fun |buffer#52| ((state |buffer_s|)) (_ BitVec 1) (ite (= ((_ extract 0 0) (|buffer#51| state)) #b1) (ite (|buffer#49| state) #b1 #b0) (|buffer#27| state))) ; $0$formal$buffer.sv:285$4_CHECK[0:0]$46
(define-fun |buffer#53| ((state |buffer_s|)) (_ BitVec 1) (ite (= ((_ extract 0 0) (|buffer#51| state)) #b1) #b1 #b0)) ; $0$formal$buffer.sv:285$4_EN[0:0]$47
; yosys-smt2-assume 2 $assume$buffer.sv:285$67 buffer.sv:285.39-286.34
(define-fun |buffer_u 2| ((state |buffer_s|)) Bool (or (= ((_ extract 0 0) (|buffer#52| state)) #b1) (not (= ((_ extract 0 0) (|buffer#53| state)) #b1)))) ; $assume$buffer.sv:285$67
(define-fun |buffer#54| ((state |buffer_s|)) Bool (= (|buffer#15| state) #b00000001)) ; $eq$buffer.sv:282$56_Y
(define-fun |buffer#55| ((state |buffer_s|)) (_ BitVec 1) (bvand (|buffer#13| state) (|buffer#32| state))) ; $and$buffer.sv:281$55_Y
(define-fun |buffer#56| ((state |buffer_s|)) (_ BitVec 1) (ite (= ((_ extract 0 0) (|buffer#55| state)) #b1) (ite (|buffer#54| state) #b1 #b0) (|buffer#28| state))) ; $0$formal$buffer.sv:281$3_CHECK[0:0]$44
(define-fun |buffer#57| ((state |buffer_s|)) (_ BitVec 1) (ite (= ((_ extract 0 0) (|buffer#55| state)) #b1) #b1 #b0)) ; $0$formal$buffer.sv:281$3_EN[0:0]$45
; yosys-smt2-assume 3 $assume$buffer.sv:281$66 buffer.sv:281.31-282.34
(define-fun |buffer_u 3| ((state |buffer_s|)) Bool (or (= ((_ extract 0 0) (|buffer#56| state)) #b1) (not (= ((_ extract 0 0) (|buffer#57| state)) #b1)))) ; $assume$buffer.sv:281$66
(define-fun |buffer#58| ((state |buffer_s|)) (_ BitVec 1) (bvand (|buffer#10| state) (|buffer#35| state))) ; $and$buffer.sv:278$54_Y
(define-fun |buffer#59| ((state |buffer_s|)) (_ BitVec 1) (ite (|buffer#4| state) (|buffer#29| state) (|buffer#58| state))) ; $0$formal$buffer.sv:277$2_CHECK[0:0]$42
(define-fun |buffer#60| ((state |buffer_s|)) (_ BitVec 1) (ite (|buffer#4| state) #b0 #b1)) ; $0$formal$buffer.sv:273$1_EN[0:0]$41
; yosys-smt2-assume 4 $assume$buffer.sv:277$65 buffer.sv:277.20-278.31
(define-fun |buffer_u 4| ((state |buffer_s|)) Bool (or (= ((_ extract 0 0) (|buffer#59| state)) #b1) (not (= ((_ extract 0 0) (|buffer#60| state)) #b1)))) ; $assume$buffer.sv:277$65
(define-fun |buffer#61| ((state |buffer_s|)) (_ BitVec 1) (bvand (|buffer#9| state) (|buffer#33| state))) ; $and$buffer.sv:274$53_Y
(define-fun |buffer#62| ((state |buffer_s|)) (_ BitVec 1) (ite (|buffer#4| state) (|buffer#24| state) (|buffer#61| state))) ; $0$formal$buffer.sv:273$1_CHECK[0:0]$40
; yosys-smt2-assume 5 $assume$buffer.sv:273$64 buffer.sv:273.22-274.30
(define-fun |buffer_u 5| ((state |buffer_s|)) Bool (or (= ((_ extract 0 0) (|buffer#62| state)) #b1) (not (= ((_ extract 0 0) (|buffer#60| state)) #b1)))) ; $assume$buffer.sv:273$64
; yosys-smt2-assert 0 $assert$buffer.sv:293$69 buffer.sv:293.44-294.31
(define-fun |buffer_a 0| ((state |buffer_s|)) Bool (or (= ((_ extract 0 0) (|buffer#30| state)) #b1) (not (= ((_ extract 0 0) (|buffer#44| state)) #b1)))) ; $assert$buffer.sv:293$69
(define-fun |buffer#63| ((state |buffer_s|)) (_ BitVec 1) (bvand (ite (|buffer#3| state) #b1 #b0) (|buffer#32| state))) ; $and$buffer.sv:293$62_Y
(define-fun |buffer#64| ((state |buffer_s|)) (_ BitVec 1) (ite (= ((_ extract 0 0) (|buffer#63| state)) #b1) #b1 #b0)) ; $0$formal$buffer.sv:293$6_EN[0:0]$51
(define-fun |buffer#65| ((state |buffer_s|)) (_ BitVec 1) (bvand (|buffer#19| state) (|buffer#17| state))) ; $and$buffer.sv:294$63_Y
(define-fun |buffer#66| ((state |buffer_s|)) (_ BitVec 1) (ite (= ((_ extract 0 0) (|buffer#63| state)) #b1) (|buffer#65| state) (|buffer#25| state))) ; $0$formal$buffer.sv:293$6_CHECK[0:0]$50
(define-fun |buffer#67| ((state |buffer_s|)) Bool (not (or  (= ((_ extract 0 0) (|buffer#0| state)) #b1) (= ((_ extract 1 1) (|buffer#0| state)) #b1)))) ; $eq$buffer.sv:70$28_Y
(define-fun |buffer#68| ((state |buffer_s|)) (_ BitVec 8) (ite (|buffer#67| state) (|buffer#15| state) (|buffer#23| state))) ; $procmux$178_Y
(define-fun |buffer#69| ((state |buffer_s|)) (_ BitVec 8) (ite (= ((_ extract 0 0) (|buffer#12| state)) #b1) (|buffer#68| state) (|buffer#23| state))) ; $procmux$180_Y
(define-fun |buffer#70| ((state |buffer_s|)) (_ BitVec 8) (ite (|buffer#4| state) #b00000000 (|buffer#69| state))) ; $0\buffer_0[7:0]
(define-fun |buffer#71| ((state |buffer_s|)) Bool (= #b01 (|buffer#0| state))) ; $eq$buffer.sv:77$29_Y
(define-fun |buffer#72| ((state |buffer_s|)) (_ BitVec 8) (ite (|buffer#71| state) (|buffer#15| state) (|buffer#22| state))) ; $procmux$171_Y
(define-fun |buffer#73| ((state |buffer_s|)) (_ BitVec 8) (ite (= ((_ extract 0 0) (|buffer#12| state)) #b1) (|buffer#72| state) (|buffer#22| state))) ; $procmux$173_Y
(define-fun |buffer#74| ((state |buffer_s|)) (_ BitVec 8) (ite (|buffer#4| state) #b00000000 (|buffer#73| state))) ; $0\buffer_1[7:0]
(define-fun |buffer#75| ((state |buffer_s|)) Bool (= #b10 (|buffer#0| state))) ; $eq$buffer.sv:84$30_Y
(define-fun |buffer#76| ((state |buffer_s|)) (_ BitVec 8) (ite (|buffer#75| state) (|buffer#15| state) (|buffer#21| state))) ; $procmux$164_Y
(define-fun |buffer#77| ((state |buffer_s|)) (_ BitVec 8) (ite (= ((_ extract 0 0) (|buffer#12| state)) #b1) (|buffer#76| state) (|buffer#21| state))) ; $procmux$166_Y
(define-fun |buffer#78| ((state |buffer_s|)) (_ BitVec 8) (ite (|buffer#4| state) #b00000000 (|buffer#77| state))) ; $0\buffer_2[7:0]
(define-fun |buffer#79| ((state |buffer_s|)) Bool (= #b11 (|buffer#0| state))) ; $eq$buffer.sv:91$31_Y
(define-fun |buffer#80| ((state |buffer_s|)) (_ BitVec 8) (ite (|buffer#79| state) (|buffer#15| state) (|buffer#20| state))) ; $procmux$157_Y
(define-fun |buffer#81| ((state |buffer_s|)) (_ BitVec 8) (ite (= ((_ extract 0 0) (|buffer#12| state)) #b1) (|buffer#80| state) (|buffer#20| state))) ; $procmux$159_Y
(define-fun |buffer#82| ((state |buffer_s|)) (_ BitVec 8) (ite (|buffer#4| state) #b00000000 (|buffer#81| state))) ; $0\buffer_3[7:0]
(define-fun |buffer#83| ((state |buffer_s|)) (_ BitVec 1) (ite (= ((_ extract 0 0) (|buffer#19| state)) #b1) #b0 (|buffer#36| state))) ; $procmux$119_Y
(define-fun |buffer#84| ((state |buffer_s|)) (_ BitVec 1) (ite (|buffer#4| state) #b0 (|buffer#83| state))) ; $0\flag[0:0]
(define-fun |buffer#85| ((state |buffer_s|)) Bool (= #b10 (|buffer#6| state))) ; $eq$buffer.sv:110$36_Y
(define-fun |buffer#86| ((state |buffer_s|)) (_ BitVec 8) (ite (|buffer#85| state) (|buffer#21| state) (|buffer#38| state))) ; $procmux$147_Y
(define-fun |buffer#87| ((state |buffer_s|)) Bool (= #b11 (|buffer#6| state))) ; $eq$buffer.sv:108$35_Y
(define-fun |buffer#88| ((state |buffer_s|)) (_ BitVec 8) (ite (|buffer#87| state) (|buffer#20| state) (|buffer#86| state))) ; $procmux$150_Y
(define-fun |buffer#89| ((state |buffer_s|)) (_ BitVec 8) (ite (|buffer#16| state) (|buffer#88| state) (|buffer#11| state))) ; $procmux$152_Y
(define-fun |buffer#90| ((state |buffer_s|)) (_ BitVec 8) (ite (|buffer#4| state) #b00000000 (|buffer#89| state))) ; $0\out_data[7:0]
(define-fun |buffer#91| ((state |buffer_s|)) Bool (= (|buffer#0| state) (|buffer#6| state))) ; $eq$buffer.sv:103$32_Y
(define-fun |buffer#92| ((state |buffer_s|)) (_ BitVec 1) (bvnot (|buffer#9| state))) ; $not$buffer.sv:103$33_Y
(define-fun |buffer#93| ((state |buffer_s|)) (_ BitVec 1) (bvand (ite (|buffer#91| state) #b1 #b0) (|buffer#92| state))) ; $and$buffer.sv:103$34_Y
(define-fun |buffer#94| ((state |buffer_s|)) (_ BitVec 1) (ite (|buffer#4| state) #b0 (|buffer#93| state))) ; $0\out_empty[0:0]
(define-fun |buffer#95| ((state |buffer_s|)) (_ BitVec 1) (ite (|buffer#4| state) #b0 (|buffer#43| state))) ; $0\out_full[0:0]
(define-fun |buffer#96| ((state |buffer_s|)) Bool (bvult (|buffer#6| state) #b11)) ; $lt$buffer.sv:128$38_Y
(define-fun |buffer#97| ((state |buffer_s|)) (_ BitVec 2) (ite (|buffer#96| state) (|buffer#31| state) #b00)) ; $procmux$131_Y
(define-fun |buffer#98| ((state |buffer_s|)) (_ BitVec 2) (ite (|buffer#16| state) (|buffer#97| state) (|buffer#6| state))) ; $procmux$133_Y
(define-fun |buffer#99| ((state |buffer_s|)) (_ BitVec 2) (ite (|buffer#4| state) #b00 (|buffer#98| state))) ; $0\rdptr[1:0]
(define-fun |buffer#100| ((state |buffer_s|)) Bool (bvult (|buffer#0| state) #b11)) ; $lt$buffer.sv:119$37_Y
(define-fun |buffer#101| ((state |buffer_s|)) (_ BitVec 2) (ite (|buffer#100| state) (|buffer#7| state) #b00)) ; $procmux$139_Y
(define-fun |buffer#102| ((state |buffer_s|)) (_ BitVec 2) (ite (= ((_ extract 0 0) (|buffer#12| state)) #b1) (|buffer#101| state) (|buffer#0| state))) ; $procmux$141_Y
(define-fun |buffer#103| ((state |buffer_s|)) (_ BitVec 2) (ite (|buffer#4| state) #b00 (|buffer#102| state))) ; $0\wrptr[1:0]
(define-fun |buffer_a| ((state |buffer_s|)) Bool (and
  (|buffer_a 0| state)
  (|ResetCounter_a| (|buffer_h resetCounter| state))
  (|$paramod/AnyConst/WIDTH=s32'00000000000000000000000000000001_a| (|buffer_h rnd_mark_cst| state))
))
(define-fun |buffer_u| ((state |buffer_s|)) Bool (and
  (|buffer_u 0| state)
  (|buffer_u 1| state)
  (|buffer_u 2| state)
  (|buffer_u 3| state)
  (|buffer_u 4| state)
  (|buffer_u 5| state)
  (|ResetCounter_u| (|buffer_h resetCounter| state))
  (|$paramod/AnyConst/WIDTH=s32'00000000000000000000000000000001_u| (|buffer_h rnd_mark_cst| state))
))
(define-fun |buffer_i| ((state |buffer_s|)) Bool (and
  (= (= ((_ extract 0 0) (|buffer#44| state)) #b1) false) ; $formal$buffer.sv:293$6_EN
  (|ResetCounter_i| (|buffer_h resetCounter| state))
  (|$paramod/AnyConst/WIDTH=s32'00000000000000000000000000000001_i| (|buffer_h rnd_mark_cst| state))
))
(define-fun |buffer_h| ((state |buffer_s|)) Bool (and
  (= (|buffer_is| state) (|ResetCounter_is| (|buffer_h resetCounter| state)))
  (= (|buffer#2| state) (|ResetCounter_n timeSinceReset| (|buffer_h resetCounter| state))) ; ResetCounter.timeSinceReset
  (= (|buffer#4| state) (|ResetCounter_n reset| (|buffer_h resetCounter| state))) ; ResetCounter.reset
  (= (|buffer#3| state) (|ResetCounter_n notChaos| (|buffer_h resetCounter| state))) ; ResetCounter.notChaos
  (= (|buffer#5| state) (|ResetCounter_n clk| (|buffer_h resetCounter| state))) ; ResetCounter.clk
  (= (|buffer_is| state) (|$paramod/AnyConst/WIDTH=s32'00000000000000000000000000000001_is| (|buffer_h rnd_mark_cst| state)))
  (= (|buffer#1| state) (|$paramod/AnyConst/WIDTH=s32'00000000000000000000000000000001_n out| (|buffer_h rnd_mark_cst| state))) ; $paramod/AnyConst/WIDTH=s32'00000000000000000000000000000001.out
  (|ResetCounter_h| (|buffer_h resetCounter| state))
  (|$paramod/AnyConst/WIDTH=s32'00000000000000000000000000000001_h| (|buffer_h rnd_mark_cst| state))
))
(define-fun |buffer_t| ((state |buffer_s|) (next_state |buffer_s|)) Bool (and
  (= (|buffer#64| state) (|buffer#44| next_state)) ; $procdff$198 $formal$buffer.sv:293$6_EN
  (= (|buffer#66| state) (|buffer#30| next_state)) ; $procdff$197 \_witness_.anyinit_procdff_197
  (= (|buffer#70| state) (|buffer#23| next_state)) ; $procdff$199 \buffer_0
  (= (|buffer#74| state) (|buffer#22| next_state)) ; $procdff$200 \buffer_1
  (= (|buffer#78| state) (|buffer#21| next_state)) ; $procdff$201 \buffer_2
  (= (|buffer#82| state) (|buffer#20| next_state)) ; $procdff$202 \buffer_3
  (= (|buffer#84| state) (|buffer#17| next_state)) ; $procdff$208 \flag
  (= (|buffer#90| state) (|buffer#11| next_state)) ; $procdff$205 \out_data
  (= (|buffer#94| state) (|buffer#10| next_state)) ; $procdff$204 \out_empty
  (= (|buffer#95| state) (|buffer#9| next_state)) ; $procdff$203 \out_full
  (= (|buffer#99| state) (|buffer#6| next_state)) ; $procdff$207 \rdptr
  (= (|buffer#103| state) (|buffer#0| next_state)) ; $procdff$206 \wrptr
  (|ResetCounter_t| (|buffer_h resetCounter| state) (|buffer_h resetCounter| next_state))
  (|$paramod/AnyConst/WIDTH=s32'00000000000000000000000000000001_t| (|buffer_h rnd_mark_cst| state) (|buffer_h rnd_mark_cst| next_state))
)) ; end of module buffer
; yosys-smt2-topmod buffer
; end of yosys output
